problems/VanDerWaerdenNumbers/VanDerWaerden-models/noch/O2/lingeling/model_2-k3l4n35-solution000001.eprime-solution
language ESSENCE' 1.0

letting p_PartitionAsSet_ExplicitR6_ExplicitVarSizeWithDummy be
        [[1, 8, 9, 12, 14, 20, 21, 30, 33, 35, 36, 36, 36, 36, 36, 36, 36, 36, 36, 36, 36, 36, 36, 36, 36, 36, 36, 36,
          36, 36, 36, 36, 36, 36, 36; int(1..35)],
         [2, 3, 4, 7, 16, 17, 18, 22, 23, 25, 28, 29, 32, 36, 36, 36, 36, 36, 36, 36, 36, 36, 36, 36, 36, 36, 36, 36,
          36, 36, 36, 36, 36, 36, 36; int(1..35)],
         [5, 6, 10, 11, 13, 15, 19, 24, 26, 27, 31, 34, 36, 36, 36, 36, 36, 36, 36, 36, 36, 36, 36, 36, 36, 36, 36, 36,
          36, 36, 36, 36, 36, 36, 36; int(1..35)]; int(1..3)]
