problems/VanDerWaerdenNumbers/VanDerWaerden-models/noch/O2/lingeling/model_2-k3l4n35-solution000001.solution
language Essence 1.3

letting p be
        partition({1, 8, 9, 12, 14, 20, 21, 30, 33, 35}, {2, 3, 4, 7, 16, 17, 18, 22, 23, 25, 28, 29, 32},
                  {5, 6, 10, 11, 13, 15, 19, 24, 26, 27, 31, 34})
